data;
set days := 1 2 3 4 5 6 7 ;
set weeks := 1 ;
set blocks := 1; #block surgical durations
#set surgeons ;
set operatingRooms := 1 2; #pabellones quirurgicos
set patientTypes := 1; #tipos de pacientes 


param weekBlocks :
	1    :=
   1	8   ;
   
   